n = 21;
lu = [|-145, 357
      |-356, 408
      |-424, 165
      |-127, -8
      |-53, 101
      |-308, -75
      |-245, 302
      |-168, 14
      |-427, -215
      |24, 194
      |-416, -333
      |-354, 286
      |-10, 69
      |-421, 83
      |201, 310
      |-74, 0
      |-383, 348
      |-231, 360
      |-405, 162
      |-64, 232
      |-265, 194|];
